c A SAT instance generated from a 3-CNF formula that had 12 clauses and 6 variables
p cnf 6 12
1 -5 -2 0
2 -6 1 0
4 2 -3 0
4 2 -6 0
6 -5 -2 0
2 -6 -3 0
6 2 -3 0
4 1 -2 0
-4 3 -5 0
-3 -4 -5 0
-4 1 5 0
-2 1 -6 0
